22015.0
16,131,1999,584,837,1369,873,169,933,1759,727,226,926,1186,1898,634,1224,997,821,757,1330,1806,925,1203,1187,1772,1205,147,211,1386,165,1001,307,268,545,1648,1167,1273,106,323,1605,1774,675,1439,157,1314,1617,1733,986,113,1170,242,1550,1890,1445,705,423,851,29,1198,1267,1351,1302,764,1100,1146,1731,1540,921,1968,89,562,1451,1984,855,1815,546,1078,662,1623,1286,637,1463,1689,1464,1486,1472,265,758,938,1710,1206,952,1877,1309,946,1660,574,1899,838,1690,849,883,1196,505,1657,852,721,432,988,583,1471,694,1637,1849,1561,1474,767,1834,1599,271,1615
